unknown
(model
; cardinality of BoundSet is 1
(declare-sort BoundSet 0)
; rep: @uc_BoundSet_0
(declare-sort UnboundSet 0)
(define-fun IsHispanic ((BOUND_VARIABLE_376 BoundSet)) Bool false)
(define-fun WearsRedPlaidShirt ((BOUND_VARIABLE_376 BoundSet)) Bool false)
(define-fun IsWearing ((BOUND_VARIABLE_376 BoundSet)) Bool false)
(define-fun IsSewing ((BOUND_VARIABLE_376 BoundSet)) Bool false)
(define-fun IsAnArticleOfClothing ((BOUND_VARIABLE_376 BoundSet)) Bool false)
)
